25° run output:
{
    "Function": "ClusterA500.tsp",
    "Problem dimension": [
        383,
        161,
        176,
        155,
        216,
        8,
        327,
        461,
        11,
        385,
        283,
        173,
        269,
        60,
        325,
        180,
        63,
        150,
        356,
        297,
        264,
        284,
        193,
        494,
        27,
        402,
        21,
        82,
        474,
        97,
        210,
        322,
        237,
        316,
        261,
        346,
        344,
        115,
        52,
        452,
        37,
        76,
        49,
        181,
        46,
        293,
        380,
        0,
        130,
        240,
        244,
        493,
        370,
        476,
        415,
        445,
        278,
        179,
        320,
        369,
        184,
        479,
        338,
        416,
        265,
        315,
        75,
        202,
        499,
        288,
        397,
        378,
        485,
        137,
        59,
        42,
        496,
        395,
        40,
        197,
        41,
        326,
        206,
        332,
        256,
        292,
        207,
        30,
        313,
        229,
        427,
        175,
        89,
        55,
        375,
        450,
        79,
        86,
        280,
        407,
        411,
        291,
        449,
        143,
        211,
        497,
        463,
        157,
        457,
        428,
        424,
        225,
        215,
        17,
        135,
        400,
        374,
        448,
        359,
        116,
        65,
        263,
        5,
        67,
        300,
        466,
        483,
        194,
        94,
        277,
        254,
        68,
        220,
        333,
        477,
        274,
        129,
        83,
        165,
        323,
        93,
        71,
        32,
        31,
        305,
        413,
        151,
        347,
        422,
        164,
        87,
        58,
        78,
        132,
        304,
        319,
        360,
        351,
        249,
        490,
        208,
        260,
        408,
        118,
        317,
        268,
        92,
        171,
        170,
        381,
        475,
        117,
        363,
        144,
        34,
        20,
        484,
        204,
        489,
        306,
        4,
        388,
        14,
        195,
        341,
        110,
        24,
        29,
        436,
        241,
        393,
        433,
        401,
        418,
        122,
        318,
        276,
        214,
        321,
        242,
        114,
        57,
        100,
        252,
        7,
        451,
        239,
        205,
        403,
        302,
        364,
        224,
        246,
        231,
        91,
        174,
        491,
        64,
        123,
        330,
        336,
        464,
        390,
        88,
        372,
        353,
        25,
        196,
        160,
        209,
        294,
        271,
        309,
        109,
        219,
        26,
        234,
        111,
        22,
        228,
        187,
        250,
        10,
        303,
        70,
        104,
        366,
        233,
        257,
        199,
        61,
        177,
        492,
        112,
        72,
        426,
        379,
        51,
        275,
        367,
        389,
        146,
        172,
        73,
        226,
        262,
        38,
        131,
        124,
        342,
        221,
        465,
        441,
        106,
        459,
        458,
        35,
        328,
        335,
        439,
        398,
        36,
        149,
        133,
        153,
        337,
        6,
        399,
        251,
        163,
        368,
        236,
        266,
        387,
        488,
        314,
        134,
        453,
        371,
        212,
        298,
        455,
        12,
        301,
        245,
        77,
        217,
        50,
        103,
        419,
        178,
        384,
        471,
        230,
        259,
        15,
        447,
        334,
        185,
        310,
        2,
        148,
        270,
        382,
        96,
        329,
        66,
        307,
        281,
        248,
        120,
        47,
        139,
        482,
        486,
        16,
        391,
        308,
        446,
        392,
        473,
        495,
        290,
        201,
        357,
        121,
        152,
        331,
        162,
        253,
        203,
        420,
        140,
        166,
        348,
        373,
        9,
        414,
        437,
        386,
        69,
        23,
        273,
        454,
        156,
        81,
        127,
        200,
        409,
        429,
        443,
        456,
        311,
        406,
        354,
        182,
        258,
        198,
        84,
        141,
        339,
        472,
        39,
        3,
        158,
        183,
        107,
        285,
        282,
        48,
        423,
        312,
        487,
        435,
        128,
        90,
        44,
        147,
        343,
        362,
        404,
        431,
        299,
        350,
        33,
        296,
        365,
        396,
        410,
        223,
        355,
        186,
        361,
        192,
        340,
        324,
        74,
        289,
        287,
        95,
        28,
        54,
        470,
        432,
        345,
        467,
        119,
        102,
        145,
        190,
        169,
        425,
        295,
        376,
        394,
        136,
        462,
        18,
        191,
        168,
        352,
        108,
        53,
        498,
        405,
        85,
        159,
        480,
        238,
        99,
        377,
        417,
        279,
        255,
        444,
        80,
        167,
        113,
        213,
        478,
        98,
        442,
        272,
        218,
        481,
        154,
        62,
        349,
        45,
        267,
        19,
        247,
        430,
        125,
        105,
        56,
        243,
        188,
        222,
        469,
        43,
        142,
        438,
        126,
        440,
        235,
        101,
        468,
        227,
        232,
        286,
        1,
        189,
        358,
        138,
        421,
        412,
        13,
        434,
        460
    ],
    "Global Optimum": 0,
    "Algorithm": "Genetic algorithm",
    "Parameters": {
        "population": 30,
        "offspring": 30,
        "mutation probability": 0.002,
        "crossover probability": 0.9
    },
    "Fitness": 724976,
    "Solution": [
        383,
        161,
        176,
        155,
        216,
        8,
        327,
        461,
        11,
        385,
        283,
        173,
        269,
        60,
        325,
        180,
        63,
        150,
        356,
        297,
        264,
        284,
        193,
        494,
        27,
        402,
        21,
        82,
        474,
        97,
        210,
        322,
        237,
        316,
        261,
        346,
        344,
        115,
        52,
        452,
        37,
        76,
        49,
        181,
        46,
        293,
        380,
        0,
        130,
        240,
        244,
        493,
        370,
        476,
        415,
        445,
        278,
        179,
        320,
        369,
        184,
        479,
        338,
        416,
        265,
        315,
        75,
        202,
        499,
        288,
        397,
        378,
        485,
        137,
        59,
        42,
        496,
        395,
        40,
        197,
        41,
        326,
        206,
        332,
        256,
        292,
        207,
        30,
        313,
        229,
        427,
        175,
        89,
        55,
        375,
        450,
        79,
        86,
        280,
        407,
        411,
        291,
        449,
        143,
        211,
        497,
        463,
        157,
        457,
        428,
        424,
        225,
        215,
        17,
        135,
        400,
        374,
        448,
        359,
        116,
        65,
        263,
        5,
        67,
        300,
        466,
        483,
        194,
        94,
        277,
        254,
        68,
        220,
        333,
        477,
        274,
        129,
        83,
        165,
        323,
        93,
        71,
        32,
        31,
        305,
        413,
        151,
        347,
        422,
        164,
        87,
        58,
        78,
        132,
        304,
        319,
        360,
        351,
        249,
        490,
        208,
        260,
        408,
        118,
        317,
        268,
        92,
        171,
        170,
        381,
        475,
        117,
        363,
        144,
        34,
        20,
        484,
        204,
        489,
        306,
        4,
        388,
        14,
        195,
        341,
        110,
        24,
        29,
        436,
        241,
        393,
        433,
        401,
        418,
        122,
        318,
        276,
        214,
        321,
        242,
        114,
        57,
        100,
        252,
        7,
        451,
        239,
        205,
        403,
        302,
        364,
        224,
        246,
        231,
        91,
        174,
        491,
        64,
        123,
        330,
        336,
        464,
        390,
        88,
        372,
        353,
        25,
        196,
        160,
        209,
        294,
        271,
        309,
        109,
        219,
        26,
        234,
        111,
        22,
        228,
        187,
        250,
        10,
        303,
        70,
        104,
        366,
        233,
        257,
        199,
        61,
        177,
        492,
        112,
        72,
        426,
        379,
        51,
        275,
        367,
        389,
        146,
        172,
        73,
        226,
        262,
        38,
        131,
        124,
        342,
        221,
        465,
        441,
        106,
        459,
        458,
        35,
        328,
        335,
        439,
        398,
        36,
        149,
        133,
        153,
        337,
        6,
        399,
        251,
        163,
        368,
        236,
        266,
        387,
        488,
        314,
        134,
        453,
        371,
        212,
        298,
        455,
        12,
        301,
        245,
        77,
        217,
        50,
        103,
        419,
        178,
        384,
        471,
        230,
        259,
        15,
        447,
        334,
        185,
        310,
        2,
        148,
        270,
        382,
        96,
        329,
        66,
        307,
        281,
        248,
        120,
        47,
        139,
        482,
        486,
        16,
        391,
        308,
        446,
        392,
        473,
        495,
        290,
        201,
        357,
        121,
        152,
        331,
        162,
        253,
        203,
        420,
        140,
        166,
        348,
        373,
        9,
        414,
        437,
        386,
        69,
        23,
        273,
        454,
        156,
        81,
        127,
        200,
        409,
        429,
        443,
        456,
        311,
        406,
        354,
        182,
        258,
        198,
        84,
        141,
        339,
        472,
        39,
        3,
        158,
        183,
        107,
        285,
        282,
        48,
        423,
        312,
        487,
        435,
        128,
        90,
        44,
        147,
        343,
        362,
        404,
        431,
        299,
        350,
        33,
        296,
        365,
        396,
        410,
        223,
        355,
        186,
        361,
        192,
        340,
        324,
        74,
        289,
        287,
        95,
        28,
        54,
        470,
        432,
        345,
        467,
        119,
        102,
        145,
        190,
        169,
        425,
        295,
        376,
        394,
        136,
        462,
        18,
        191,
        168,
        352,
        108,
        53,
        498,
        405,
        85,
        159,
        480,
        238,
        99,
        377,
        417,
        279,
        255,
        444,
        80,
        167,
        113,
        213,
        478,
        98,
        442,
        272,
        218,
        481,
        154,
        62,
        349,
        45,
        267,
        19,
        247,
        430,
        125,
        105,
        56,
        243,
        188,
        222,
        469,
        43,
        142,
        438,
        126,
        440,
        235,
        101,
        468,
        227,
        232,
        286,
        1,
        189,
        358,
        138,
        421,
        412,
        13,
        434,
        460
    ],
    "Nb of functions evaluations": 50010,
    "Computational time in seconds": 374.5653214454651,
    "Stopping criterion in evaluations": 50000
}